c File: flat200_3_0.col
c
c SOURCE: Joseph Culberson (joe@cs.ualberta.ca)
c DESCRIPTION: Quasi-random coloring problem
c              generated with flatness = 0
c                             probability = 0.036
c                             known coloring = 3
c                             random seed = 1015
c              Creation Date:  Wed Feb 24 10:39:37 1999
c Maximum degree = 8 Minimum degree = 0
c COLOR VERIFICATION: Using the permuted order
c under simple greedy yields the specified
c coloring number
c Color = 3 specified partitions = 3
c p edge 200 479
c cnf created by edge2cnf
p cnf 600 2237
-1 -2 0
-1 -3 0
-2 -3 0
1 2 3 0
-4 -5 0
-4 -6 0
-5 -6 0
4 5 6 0
-7 -8 0
-7 -9 0
-8 -9 0
7 8 9 0
-10 -11 0
-10 -12 0
-11 -12 0
10 11 12 0
-13 -14 0
-13 -15 0
-14 -15 0
13 14 15 0
-16 -17 0
-16 -18 0
-17 -18 0
16 17 18 0
-19 -20 0
-19 -21 0
-20 -21 0
19 20 21 0
-22 -23 0
-22 -24 0
-23 -24 0
22 23 24 0
-25 -26 0
-25 -27 0
-26 -27 0
25 26 27 0
-28 -29 0
-28 -30 0
-29 -30 0
28 29 30 0
-31 -32 0
-31 -33 0
-32 -33 0
31 32 33 0
-34 -35 0
-34 -36 0
-35 -36 0
34 35 36 0
-37 -38 0
-37 -39 0
-38 -39 0
37 38 39 0
-40 -41 0
-40 -42 0
-41 -42 0
40 41 42 0
-43 -44 0
-43 -45 0
-44 -45 0
43 44 45 0
-46 -47 0
-46 -48 0
-47 -48 0
46 47 48 0
-49 -50 0
-49 -51 0
-50 -51 0
49 50 51 0
-52 -53 0
-52 -54 0
-53 -54 0
52 53 54 0
-55 -56 0
-55 -57 0
-56 -57 0
55 56 57 0
-58 -59 0
-58 -60 0
-59 -60 0
58 59 60 0
-61 -62 0
-61 -63 0
-62 -63 0
61 62 63 0
-64 -65 0
-64 -66 0
-65 -66 0
64 65 66 0
-67 -68 0
-67 -69 0
-68 -69 0
67 68 69 0
-70 -71 0
-70 -72 0
-71 -72 0
70 71 72 0
-73 -74 0
-73 -75 0
-74 -75 0
73 74 75 0
-76 -77 0
-76 -78 0
-77 -78 0
76 77 78 0
-79 -80 0
-79 -81 0
-80 -81 0
79 80 81 0
-82 -83 0
-82 -84 0
-83 -84 0
82 83 84 0
-85 -86 0
-85 -87 0
-86 -87 0
85 86 87 0
-88 -89 0
-88 -90 0
-89 -90 0
88 89 90 0
-91 -92 0
-91 -93 0
-92 -93 0
91 92 93 0
-94 -95 0
-94 -96 0
-95 -96 0
94 95 96 0
-97 -98 0
-97 -99 0
-98 -99 0
97 98 99 0
-100 -101 0
-100 -102 0
-101 -102 0
100 101 102 0
-103 -104 0
-103 -105 0
-104 -105 0
103 104 105 0
-106 -107 0
-106 -108 0
-107 -108 0
106 107 108 0
-109 -110 0
-109 -111 0
-110 -111 0
109 110 111 0
-112 -113 0
-112 -114 0
-113 -114 0
112 113 114 0
-115 -116 0
-115 -117 0
-116 -117 0
115 116 117 0
-118 -119 0
-118 -120 0
-119 -120 0
118 119 120 0
-121 -122 0
-121 -123 0
-122 -123 0
121 122 123 0
-124 -125 0
-124 -126 0
-125 -126 0
124 125 126 0
-127 -128 0
-127 -129 0
-128 -129 0
127 128 129 0
-130 -131 0
-130 -132 0
-131 -132 0
130 131 132 0
-133 -134 0
-133 -135 0
-134 -135 0
133 134 135 0
-136 -137 0
-136 -138 0
-137 -138 0
136 137 138 0
-139 -140 0
-139 -141 0
-140 -141 0
139 140 141 0
-142 -143 0
-142 -144 0
-143 -144 0
142 143 144 0
-145 -146 0
-145 -147 0
-146 -147 0
145 146 147 0
-148 -149 0
-148 -150 0
-149 -150 0
148 149 150 0
-151 -152 0
-151 -153 0
-152 -153 0
151 152 153 0
-154 -155 0
-154 -156 0
-155 -156 0
154 155 156 0
-157 -158 0
-157 -159 0
-158 -159 0
157 158 159 0
-160 -161 0
-160 -162 0
-161 -162 0
160 161 162 0
-163 -164 0
-163 -165 0
-164 -165 0
163 164 165 0
-166 -167 0
-166 -168 0
-167 -168 0
166 167 168 0
-169 -170 0
-169 -171 0
-170 -171 0
169 170 171 0
-172 -173 0
-172 -174 0
-173 -174 0
172 173 174 0
-175 -176 0
-175 -177 0
-176 -177 0
175 176 177 0
-178 -179 0
-178 -180 0
-179 -180 0
178 179 180 0
-181 -182 0
-181 -183 0
-182 -183 0
181 182 183 0
-184 -185 0
-184 -186 0
-185 -186 0
184 185 186 0
-187 -188 0
-187 -189 0
-188 -189 0
187 188 189 0
-190 -191 0
-190 -192 0
-191 -192 0
190 191 192 0
-193 -194 0
-193 -195 0
-194 -195 0
193 194 195 0
-196 -197 0
-196 -198 0
-197 -198 0
196 197 198 0
-199 -200 0
-199 -201 0
-200 -201 0
199 200 201 0
-202 -203 0
-202 -204 0
-203 -204 0
202 203 204 0
-205 -206 0
-205 -207 0
-206 -207 0
205 206 207 0
-208 -209 0
-208 -210 0
-209 -210 0
208 209 210 0
-211 -212 0
-211 -213 0
-212 -213 0
211 212 213 0
-214 -215 0
-214 -216 0
-215 -216 0
214 215 216 0
-217 -218 0
-217 -219 0
-218 -219 0
217 218 219 0
-220 -221 0
-220 -222 0
-221 -222 0
220 221 222 0
-223 -224 0
-223 -225 0
-224 -225 0
223 224 225 0
-226 -227 0
-226 -228 0
-227 -228 0
226 227 228 0
-229 -230 0
-229 -231 0
-230 -231 0
229 230 231 0
-232 -233 0
-232 -234 0
-233 -234 0
232 233 234 0
-235 -236 0
-235 -237 0
-236 -237 0
235 236 237 0
-238 -239 0
-238 -240 0
-239 -240 0
238 239 240 0
-241 -242 0
-241 -243 0
-242 -243 0
241 242 243 0
-244 -245 0
-244 -246 0
-245 -246 0
244 245 246 0
-247 -248 0
-247 -249 0
-248 -249 0
247 248 249 0
-250 -251 0
-250 -252 0
-251 -252 0
250 251 252 0
-253 -254 0
-253 -255 0
-254 -255 0
253 254 255 0
-256 -257 0
-256 -258 0
-257 -258 0
256 257 258 0
-259 -260 0
-259 -261 0
-260 -261 0
259 260 261 0
-262 -263 0
-262 -264 0
-263 -264 0
262 263 264 0
-265 -266 0
-265 -267 0
-266 -267 0
265 266 267 0
-268 -269 0
-268 -270 0
-269 -270 0
268 269 270 0
-271 -272 0
-271 -273 0
-272 -273 0
271 272 273 0
-274 -275 0
-274 -276 0
-275 -276 0
274 275 276 0
-277 -278 0
-277 -279 0
-278 -279 0
277 278 279 0
-280 -281 0
-280 -282 0
-281 -282 0
280 281 282 0
-283 -284 0
-283 -285 0
-284 -285 0
283 284 285 0
-286 -287 0
-286 -288 0
-287 -288 0
286 287 288 0
-289 -290 0
-289 -291 0
-290 -291 0
289 290 291 0
-292 -293 0
-292 -294 0
-293 -294 0
292 293 294 0
-295 -296 0
-295 -297 0
-296 -297 0
295 296 297 0
-298 -299 0
-298 -300 0
-299 -300 0
298 299 300 0
-301 -302 0
-301 -303 0
-302 -303 0
301 302 303 0
-304 -305 0
-304 -306 0
-305 -306 0
304 305 306 0
-307 -308 0
-307 -309 0
-308 -309 0
307 308 309 0
-310 -311 0
-310 -312 0
-311 -312 0
310 311 312 0
-313 -314 0
-313 -315 0
-314 -315 0
313 314 315 0
-316 -317 0
-316 -318 0
-317 -318 0
316 317 318 0
-319 -320 0
-319 -321 0
-320 -321 0
319 320 321 0
-322 -323 0
-322 -324 0
-323 -324 0
322 323 324 0
-325 -326 0
-325 -327 0
-326 -327 0
325 326 327 0
-328 -329 0
-328 -330 0
-329 -330 0
328 329 330 0
-331 -332 0
-331 -333 0
-332 -333 0
331 332 333 0
-334 -335 0
-334 -336 0
-335 -336 0
334 335 336 0
-337 -338 0
-337 -339 0
-338 -339 0
337 338 339 0
-340 -341 0
-340 -342 0
-341 -342 0
340 341 342 0
-343 -344 0
-343 -345 0
-344 -345 0
343 344 345 0
-346 -347 0
-346 -348 0
-347 -348 0
346 347 348 0
-349 -350 0
-349 -351 0
-350 -351 0
349 350 351 0
-352 -353 0
-352 -354 0
-353 -354 0
352 353 354 0
-355 -356 0
-355 -357 0
-356 -357 0
355 356 357 0
-358 -359 0
-358 -360 0
-359 -360 0
358 359 360 0
-361 -362 0
-361 -363 0
-362 -363 0
361 362 363 0
-364 -365 0
-364 -366 0
-365 -366 0
364 365 366 0
-367 -368 0
-367 -369 0
-368 -369 0
367 368 369 0
-370 -371 0
-370 -372 0
-371 -372 0
370 371 372 0
-373 -374 0
-373 -375 0
-374 -375 0
373 374 375 0
-376 -377 0
-376 -378 0
-377 -378 0
376 377 378 0
-379 -380 0
-379 -381 0
-380 -381 0
379 380 381 0
-382 -383 0
-382 -384 0
-383 -384 0
382 383 384 0
-385 -386 0
-385 -387 0
-386 -387 0
385 386 387 0
-388 -389 0
-388 -390 0
-389 -390 0
388 389 390 0
-391 -392 0
-391 -393 0
-392 -393 0
391 392 393 0
-394 -395 0
-394 -396 0
-395 -396 0
394 395 396 0
-397 -398 0
-397 -399 0
-398 -399 0
397 398 399 0
-400 -401 0
-400 -402 0
-401 -402 0
400 401 402 0
-403 -404 0
-403 -405 0
-404 -405 0
403 404 405 0
-406 -407 0
-406 -408 0
-407 -408 0
406 407 408 0
-409 -410 0
-409 -411 0
-410 -411 0
409 410 411 0
-412 -413 0
-412 -414 0
-413 -414 0
412 413 414 0
-415 -416 0
-415 -417 0
-416 -417 0
415 416 417 0
-418 -419 0
-418 -420 0
-419 -420 0
418 419 420 0
-421 -422 0
-421 -423 0
-422 -423 0
421 422 423 0
-424 -425 0
-424 -426 0
-425 -426 0
424 425 426 0
-427 -428 0
-427 -429 0
-428 -429 0
427 428 429 0
-430 -431 0
-430 -432 0
-431 -432 0
430 431 432 0
-433 -434 0
-433 -435 0
-434 -435 0
433 434 435 0
-436 -437 0
-436 -438 0
-437 -438 0
436 437 438 0
-439 -440 0
-439 -441 0
-440 -441 0
439 440 441 0
-442 -443 0
-442 -444 0
-443 -444 0
442 443 444 0
-445 -446 0
-445 -447 0
-446 -447 0
445 446 447 0
-448 -449 0
-448 -450 0
-449 -450 0
448 449 450 0
-451 -452 0
-451 -453 0
-452 -453 0
451 452 453 0
-454 -455 0
-454 -456 0
-455 -456 0
454 455 456 0
-457 -458 0
-457 -459 0
-458 -459 0
457 458 459 0
-460 -461 0
-460 -462 0
-461 -462 0
460 461 462 0
-463 -464 0
-463 -465 0
-464 -465 0
463 464 465 0
-466 -467 0
-466 -468 0
-467 -468 0
466 467 468 0
-469 -470 0
-469 -471 0
-470 -471 0
469 470 471 0
-472 -473 0
-472 -474 0
-473 -474 0
472 473 474 0
-475 -476 0
-475 -477 0
-476 -477 0
475 476 477 0
-478 -479 0
-478 -480 0
-479 -480 0
478 479 480 0
-481 -482 0
-481 -483 0
-482 -483 0
481 482 483 0
-484 -485 0
-484 -486 0
-485 -486 0
484 485 486 0
-487 -488 0
-487 -489 0
-488 -489 0
487 488 489 0
-490 -491 0
-490 -492 0
-491 -492 0
490 491 492 0
-493 -494 0
-493 -495 0
-494 -495 0
493 494 495 0
-496 -497 0
-496 -498 0
-497 -498 0
496 497 498 0
-499 -500 0
-499 -501 0
-500 -501 0
499 500 501 0
-502 -503 0
-502 -504 0
-503 -504 0
502 503 504 0
-505 -506 0
-505 -507 0
-506 -507 0
505 506 507 0
-508 -509 0
-508 -510 0
-509 -510 0
508 509 510 0
-511 -512 0
-511 -513 0
-512 -513 0
511 512 513 0
-514 -515 0
-514 -516 0
-515 -516 0
514 515 516 0
-517 -518 0
-517 -519 0
-518 -519 0
517 518 519 0
-520 -521 0
-520 -522 0
-521 -522 0
520 521 522 0
-523 -524 0
-523 -525 0
-524 -525 0
523 524 525 0
-526 -527 0
-526 -528 0
-527 -528 0
526 527 528 0
-529 -530 0
-529 -531 0
-530 -531 0
529 530 531 0
-532 -533 0
-532 -534 0
-533 -534 0
532 533 534 0
-535 -536 0
-535 -537 0
-536 -537 0
535 536 537 0
-538 -539 0
-538 -540 0
-539 -540 0
538 539 540 0
-541 -542 0
-541 -543 0
-542 -543 0
541 542 543 0
-544 -545 0
-544 -546 0
-545 -546 0
544 545 546 0
-547 -548 0
-547 -549 0
-548 -549 0
547 548 549 0
-550 -551 0
-550 -552 0
-551 -552 0
550 551 552 0
-553 -554 0
-553 -555 0
-554 -555 0
553 554 555 0
-556 -557 0
-556 -558 0
-557 -558 0
556 557 558 0
-559 -560 0
-559 -561 0
-560 -561 0
559 560 561 0
-562 -563 0
-562 -564 0
-563 -564 0
562 563 564 0
-565 -566 0
-565 -567 0
-566 -567 0
565 566 567 0
-568 -569 0
-568 -570 0
-569 -570 0
568 569 570 0
-571 -572 0
-571 -573 0
-572 -573 0
571 572 573 0
-574 -575 0
-574 -576 0
-575 -576 0
574 575 576 0
-577 -578 0
-577 -579 0
-578 -579 0
577 578 579 0
-580 -581 0
-580 -582 0
-581 -582 0
580 581 582 0
-583 -584 0
-583 -585 0
-584 -585 0
583 584 585 0
-586 -587 0
-586 -588 0
-587 -588 0
586 587 588 0
-589 -590 0
-589 -591 0
-590 -591 0
589 590 591 0
-592 -593 0
-592 -594 0
-593 -594 0
592 593 594 0
-595 -596 0
-595 -597 0
-596 -597 0
595 596 597 0
-598 -599 0
-598 -600 0
-599 -600 0
598 599 600 0
-265 -1 0
-266 -2 0
-267 -3 0
-271 -1 0
-272 -2 0
-273 -3 0
-310 -1 0
-311 -2 0
-312 -3 0
-316 -1 0
-317 -2 0
-318 -3 0
-106 -4 0
-107 -5 0
-108 -6 0
-328 -4 0
-329 -5 0
-330 -6 0
-349 -4 0
-350 -5 0
-351 -6 0
-403 -4 0
-404 -5 0
-405 -6 0
-514 -4 0
-515 -5 0
-516 -6 0
-118 -7 0
-119 -8 0
-120 -9 0
-139 -7 0
-140 -8 0
-141 -9 0
-190 -7 0
-191 -8 0
-192 -9 0
-199 -7 0
-200 -8 0
-201 -9 0
-229 -7 0
-230 -8 0
-231 -9 0
-379 -7 0
-380 -8 0
-381 -9 0
-397 -7 0
-398 -8 0
-399 -9 0
-16 -10 0
-17 -11 0
-18 -12 0
-364 -10 0
-365 -11 0
-366 -12 0
-598 -10 0
-599 -11 0
-600 -12 0
-214 -13 0
-215 -14 0
-216 -15 0
-256 -13 0
-257 -14 0
-258 -15 0
-343 -13 0
-344 -14 0
-345 -15 0
-556 -13 0
-557 -14 0
-558 -15 0
-19 -16 0
-20 -17 0
-21 -18 0
-220 -16 0
-221 -17 0
-222 -18 0
-520 -16 0
-521 -17 0
-522 -18 0
-550 -16 0
-551 -17 0
-552 -18 0
-139 -19 0
-140 -20 0
-141 -21 0
-589 -19 0
-590 -20 0
-591 -21 0
-64 -22 0
-65 -23 0
-66 -24 0
-319 -22 0
-320 -23 0
-321 -24 0
-337 -22 0
-338 -23 0
-339 -24 0
-346 -22 0
-347 -23 0
-348 -24 0
-451 -22 0
-452 -23 0
-453 -24 0
-478 -22 0
-479 -23 0
-480 -24 0
-592 -22 0
-593 -23 0
-594 -24 0
-178 -25 0
-179 -26 0
-180 -27 0
-229 -25 0
-230 -26 0
-231 -27 0
-289 -25 0
-290 -26 0
-291 -27 0
-358 -25 0
-359 -26 0
-360 -27 0
-391 -25 0
-392 -26 0
-393 -27 0
-448 -25 0
-449 -26 0
-450 -27 0
-46 -28 0
-47 -29 0
-48 -30 0
-184 -28 0
-185 -29 0
-186 -30 0
-208 -28 0
-209 -29 0
-210 -30 0
-409 -28 0
-410 -29 0
-411 -30 0
-304 -31 0
-305 -32 0
-306 -33 0
-430 -31 0
-431 -32 0
-432 -33 0
-472 -31 0
-473 -32 0
-474 -33 0
-553 -31 0
-554 -32 0
-555 -33 0
-49 -34 0
-50 -35 0
-51 -36 0
-235 -34 0
-236 -35 0
-237 -36 0
-349 -34 0
-350 -35 0
-351 -36 0
-430 -34 0
-431 -35 0
-432 -36 0
-439 -34 0
-440 -35 0
-441 -36 0
-109 -37 0
-110 -38 0
-111 -39 0
-226 -37 0
-227 -38 0
-228 -39 0
-355 -37 0
-356 -38 0
-357 -39 0
-499 -37 0
-500 -38 0
-501 -39 0
-142 -40 0
-143 -41 0
-144 -42 0
-295 -40 0
-296 -41 0
-297 -42 0
-553 -40 0
-554 -41 0
-555 -42 0
-556 -40 0
-557 -41 0
-558 -42 0
-169 -43 0
-170 -44 0
-171 -45 0
-445 -43 0
-446 -44 0
-447 -45 0
-109 -46 0
-110 -47 0
-111 -48 0
-175 -46 0
-176 -47 0
-177 -48 0
-382 -46 0
-383 -47 0
-384 -48 0
-127 -49 0
-128 -50 0
-129 -51 0
-280 -49 0
-281 -50 0
-282 -51 0
-304 -49 0
-305 -50 0
-306 -51 0
-424 -49 0
-425 -50 0
-426 -51 0
-595 -49 0
-596 -50 0
-597 -51 0
-256 -52 0
-257 -53 0
-258 -54 0
-454 -52 0
-455 -53 0
-456 -54 0
-496 -52 0
-497 -53 0
-498 -54 0
-583 -52 0
-584 -53 0
-585 -54 0
-592 -52 0
-593 -53 0
-594 -54 0
-130 -55 0
-131 -56 0
-132 -57 0
-337 -55 0
-338 -56 0
-339 -57 0
-412 -55 0
-413 -56 0
-414 -57 0
-490 -55 0
-491 -56 0
-492 -57 0
-505 -55 0
-506 -56 0
-507 -57 0
-73 -58 0
-74 -59 0
-75 -60 0
-100 -58 0
-101 -59 0
-102 -60 0
-193 -58 0
-194 -59 0
-195 -60 0
-220 -58 0
-221 -59 0
-222 -60 0
-73 -61 0
-74 -62 0
-75 -63 0
-133 -61 0
-134 -62 0
-135 -63 0
-148 -61 0
-149 -62 0
-150 -63 0
-250 -61 0
-251 -62 0
-252 -63 0
-427 -61 0
-428 -62 0
-429 -63 0
-427 -64 0
-428 -65 0
-429 -66 0
-439 -64 0
-440 -65 0
-441 -66 0
-313 -67 0
-314 -68 0
-315 -69 0
-517 -67 0
-518 -68 0
-519 -69 0
-589 -67 0
-590 -68 0
-591 -69 0
-349 -70 0
-350 -71 0
-351 -72 0
-364 -70 0
-365 -71 0
-366 -72 0
-391 -70 0
-392 -71 0
-393 -72 0
-457 -70 0
-458 -71 0
-459 -72 0
-568 -70 0
-569 -71 0
-570 -72 0
-208 -73 0
-209 -74 0
-210 -75 0
-595 -73 0
-596 -74 0
-597 -75 0
-181 -76 0
-182 -77 0
-183 -78 0
-484 -76 0
-485 -77 0
-486 -78 0
-487 -76 0
-488 -77 0
-489 -78 0
-136 -79 0
-137 -80 0
-138 -81 0
-190 -79 0
-191 -80 0
-192 -81 0
-349 -79 0
-350 -80 0
-351 -81 0
-457 -79 0
-458 -80 0
-459 -81 0
-478 -79 0
-479 -80 0
-480 -81 0
-517 -79 0
-518 -80 0
-519 -81 0
-196 -82 0
-197 -83 0
-198 -84 0
-235 -82 0
-236 -83 0
-237 -84 0
-259 -82 0
-260 -83 0
-261 -84 0
-361 -82 0
-362 -83 0
-363 -84 0
-472 -82 0
-473 -83 0
-474 -84 0
-151 -85 0
-152 -86 0
-153 -87 0
-289 -85 0
-290 -86 0
-291 -87 0
-322 -85 0
-323 -86 0
-324 -87 0
-346 -85 0
-347 -86 0
-348 -87 0
-475 -85 0
-476 -86 0
-477 -87 0
-427 -88 0
-428 -89 0
-429 -90 0
-430 -88 0
-431 -89 0
-432 -90 0
-547 -88 0
-548 -89 0
-549 -90 0
-580 -88 0
-581 -89 0
-582 -90 0
-289 -91 0
-290 -92 0
-291 -93 0
-397 -91 0
-398 -92 0
-399 -93 0
-475 -91 0
-476 -92 0
-477 -93 0
-136 -94 0
-137 -95 0
-138 -96 0
-214 -94 0
-215 -95 0
-216 -96 0
-514 -94 0
-515 -95 0
-516 -96 0
-532 -94 0
-533 -95 0
-534 -96 0
-100 -97 0
-101 -98 0
-102 -99 0
-232 -97 0
-233 -98 0
-234 -99 0
-433 -97 0
-434 -98 0
-435 -99 0
-589 -97 0
-590 -98 0
-591 -99 0
-127 -100 0
-128 -101 0
-129 -102 0
-181 -100 0
-182 -101 0
-183 -102 0
-412 -100 0
-413 -101 0
-414 -102 0
-535 -100 0
-536 -101 0
-537 -102 0
-286 -103 0
-287 -104 0
-288 -105 0
-343 -103 0
-344 -104 0
-345 -105 0
-403 -103 0
-404 -104 0
-405 -105 0
-511 -103 0
-512 -104 0
-513 -105 0
-532 -103 0
-533 -104 0
-534 -105 0
-580 -103 0
-581 -104 0
-582 -105 0
-124 -106 0
-125 -107 0
-126 -108 0
-277 -106 0
-278 -107 0
-279 -108 0
-361 -106 0
-362 -107 0
-363 -108 0
-478 -106 0
-479 -107 0
-480 -108 0
-571 -106 0
-572 -107 0
-573 -108 0
-274 -109 0
-275 -110 0
-276 -111 0
-397 -112 0
-398 -113 0
-399 -114 0
-472 -112 0
-473 -113 0
-474 -114 0
-481 -112 0
-482 -113 0
-483 -114 0
-337 -115 0
-338 -116 0
-339 -117 0
-169 -118 0
-170 -119 0
-171 -120 0
-202 -118 0
-203 -119 0
-204 -120 0
-220 -118 0
-221 -119 0
-222 -120 0
-277 -118 0
-278 -119 0
-279 -120 0
-412 -118 0
-413 -119 0
-414 -120 0
-469 -118 0
-470 -119 0
-471 -120 0
-151 -121 0
-152 -122 0
-153 -123 0
-250 -121 0
-251 -122 0
-252 -123 0
-319 -121 0
-320 -122 0
-321 -123 0
-355 -121 0
-356 -122 0
-357 -123 0
-523 -121 0
-524 -122 0
-525 -123 0
-523 -124 0
-524 -125 0
-525 -126 0
-529 -124 0
-530 -125 0
-531 -126 0
-298 -127 0
-299 -128 0
-300 -129 0
-310 -127 0
-311 -128 0
-312 -129 0
-313 -127 0
-314 -128 0
-315 -129 0
-409 -127 0
-410 -128 0
-411 -129 0
-424 -127 0
-425 -128 0
-426 -129 0
-526 -127 0
-527 -128 0
-528 -129 0
-244 -130 0
-245 -131 0
-246 -132 0
-307 -130 0
-308 -131 0
-309 -132 0
-325 -130 0
-326 -131 0
-327 -132 0
-448 -130 0
-449 -131 0
-450 -132 0
-451 -130 0
-452 -131 0
-453 -132 0
-163 -133 0
-164 -134 0
-165 -135 0
-217 -133 0
-218 -134 0
-219 -135 0
-253 -133 0
-254 -134 0
-255 -135 0
-355 -133 0
-356 -134 0
-357 -135 0
-373 -133 0
-374 -134 0
-375 -135 0
-538 -133 0
-539 -134 0
-540 -135 0
-406 -136 0
-407 -137 0
-408 -138 0
-457 -136 0
-458 -137 0
-459 -138 0
-487 -136 0
-488 -137 0
-489 -138 0
-538 -136 0
-539 -137 0
-540 -138 0
-541 -136 0
-542 -137 0
-543 -138 0
-550 -136 0
-551 -137 0
-552 -138 0
-145 -139 0
-146 -140 0
-147 -141 0
-265 -139 0
-266 -140 0
-267 -141 0
-286 -139 0
-287 -140 0
-288 -141 0
-493 -139 0
-494 -140 0
-495 -141 0
-508 -139 0
-509 -140 0
-510 -141 0
-583 -139 0
-584 -140 0
-585 -141 0
-178 -142 0
-179 -143 0
-180 -144 0
-196 -142 0
-197 -143 0
-198 -144 0
-256 -142 0
-257 -143 0
-258 -144 0
-391 -142 0
-392 -143 0
-393 -144 0
-421 -142 0
-422 -143 0
-423 -144 0
-439 -142 0
-440 -143 0
-441 -144 0
-580 -142 0
-581 -143 0
-582 -144 0
-415 -145 0
-416 -146 0
-417 -147 0
-436 -145 0
-437 -146 0
-438 -147 0
-460 -145 0
-461 -146 0
-462 -147 0
-388 -148 0
-389 -149 0
-390 -150 0
-433 -148 0
-434 -149 0
-435 -150 0
-454 -148 0
-455 -149 0
-456 -150 0
-172 -151 0
-173 -152 0
-174 -153 0
-205 -151 0
-206 -152 0
-207 -153 0
-511 -151 0
-512 -152 0
-513 -153 0
-436 -154 0
-437 -155 0
-438 -156 0
-199 -157 0
-200 -158 0
-201 -159 0
-241 -157 0
-242 -158 0
-243 -159 0
-274 -157 0
-275 -158 0
-276 -159 0
-505 -157 0
-506 -158 0
-507 -159 0
-451 -160 0
-452 -161 0
-453 -162 0
-556 -160 0
-557 -161 0
-558 -162 0
-571 -160 0
-572 -161 0
-573 -162 0
-583 -163 0
-584 -164 0
-585 -165 0
-481 -166 0
-482 -167 0
-483 -168 0
-559 -166 0
-560 -167 0
-561 -168 0
-313 -169 0
-314 -170 0
-315 -171 0
-433 -169 0
-434 -170 0
-435 -171 0
-514 -169 0
-515 -170 0
-516 -171 0
-193 -172 0
-194 -173 0
-195 -174 0
-265 -172 0
-266 -173 0
-267 -174 0
-343 -172 0
-344 -173 0
-345 -174 0
-592 -172 0
-593 -173 0
-594 -174 0
-199 -175 0
-200 -176 0
-201 -177 0
-535 -175 0
-536 -176 0
-537 -177 0
-199 -178 0
-200 -179 0
-201 -180 0
-286 -181 0
-287 -182 0
-288 -183 0
-223 -184 0
-224 -185 0
-225 -186 0
-307 -184 0
-308 -185 0
-309 -186 0
-208 -187 0
-209 -188 0
-210 -189 0
-331 -187 0
-332 -188 0
-333 -189 0
-406 -187 0
-407 -188 0
-408 -189 0
-595 -187 0
-596 -188 0
-597 -189 0
-244 -190 0
-245 -191 0
-246 -192 0
-391 -190 0
-392 -191 0
-393 -192 0
-307 -193 0
-308 -194 0
-309 -195 0
-322 -196 0
-323 -197 0
-324 -198 0
-493 -196 0
-494 -197 0
-495 -198 0
-571 -196 0
-572 -197 0
-573 -198 0
-577 -196 0
-578 -197 0
-579 -198 0
-280 -199 0
-281 -200 0
-282 -201 0
-313 -199 0
-314 -200 0
-315 -201 0
-475 -199 0
-476 -200 0
-477 -201 0
-301 -202 0
-302 -203 0
-303 -204 0
-586 -202 0
-587 -203 0
-588 -204 0
-208 -205 0
-209 -206 0
-210 -207 0
-229 -205 0
-230 -206 0
-231 -207 0
-364 -205 0
-365 -206 0
-366 -207 0
-415 -205 0
-416 -206 0
-417 -207 0
-433 -205 0
-434 -206 0
-435 -207 0
-382 -208 0
-383 -209 0
-384 -210 0
-439 -208 0
-440 -209 0
-441 -210 0
-271 -211 0
-272 -212 0
-273 -213 0
-298 -211 0
-299 -212 0
-300 -213 0
-319 -211 0
-320 -212 0
-321 -213 0
-325 -211 0
-326 -212 0
-327 -213 0
-379 -211 0
-380 -212 0
-381 -213 0
-487 -211 0
-488 -212 0
-489 -213 0
-460 -214 0
-461 -215 0
-462 -216 0
-574 -214 0
-575 -215 0
-576 -216 0
-577 -214 0
-578 -215 0
-579 -216 0
-322 -217 0
-323 -218 0
-324 -219 0
-394 -217 0
-395 -218 0
-396 -219 0
-469 -217 0
-470 -218 0
-471 -219 0
-238 -220 0
-239 -221 0
-240 -222 0
-265 -220 0
-266 -221 0
-267 -222 0
-334 -220 0
-335 -221 0
-336 -222 0
-505 -220 0
-506 -221 0
-507 -222 0
-562 -220 0
-563 -221 0
-564 -222 0
-271 -223 0
-272 -224 0
-273 -225 0
-472 -223 0
-473 -224 0
-474 -225 0
-499 -223 0
-500 -224 0
-501 -225 0
-559 -223 0
-560 -224 0
-561 -225 0
-295 -229 0
-296 -230 0
-297 -231 0
-430 -229 0
-431 -230 0
-432 -231 0
-547 -229 0
-548 -230 0
-549 -231 0
-454 -232 0
-455 -233 0
-456 -234 0
-292 -235 0
-293 -236 0
-294 -237 0
-301 -235 0
-302 -236 0
-303 -237 0
-490 -235 0
-491 -236 0
-492 -237 0
-577 -235 0
-578 -236 0
-579 -237 0
-592 -235 0
-593 -236 0
-594 -237 0
-463 -238 0
-464 -239 0
-465 -240 0
-373 -241 0
-374 -242 0
-375 -243 0
-523 -241 0
-524 -242 0
-525 -243 0
-568 -241 0
-569 -242 0
-570 -243 0
-574 -241 0
-575 -242 0
-576 -243 0
-310 -244 0
-311 -245 0
-312 -246 0
-343 -244 0
-344 -245 0
-345 -246 0
-484 -244 0
-485 -245 0
-486 -246 0
-535 -247 0
-536 -248 0
-537 -249 0
-490 -250 0
-491 -251 0
-492 -252 0
-541 -250 0
-542 -251 0
-543 -252 0
-580 -250 0
-581 -251 0
-582 -252 0
-334 -253 0
-335 -254 0
-336 -255 0
-388 -253 0
-389 -254 0
-390 -255 0
-445 -259 0
-446 -260 0
-447 -261 0
-484 -259 0
-485 -260 0
-486 -261 0
-559 -259 0
-560 -260 0
-561 -261 0
-286 -262 0
-287 -263 0
-288 -264 0
-346 -262 0
-347 -263 0
-348 -264 0
-409 -262 0
-410 -263 0
-411 -264 0
-529 -262 0
-530 -263 0
-531 -264 0
-580 -262 0
-581 -263 0
-582 -264 0
-592 -262 0
-593 -263 0
-594 -264 0
-445 -265 0
-446 -266 0
-447 -267 0
-283 -268 0
-284 -269 0
-285 -270 0
-400 -268 0
-401 -269 0
-402 -270 0
-442 -268 0
-443 -269 0
-444 -270 0
-571 -268 0
-572 -269 0
-573 -270 0
-583 -268 0
-584 -269 0
-585 -270 0
-274 -271 0
-275 -272 0
-276 -273 0
-532 -274 0
-533 -275 0
-534 -276 0
-415 -277 0
-416 -278 0
-417 -279 0
-439 -277 0
-440 -278 0
-441 -279 0
-562 -277 0
-563 -278 0
-564 -279 0
-316 -280 0
-317 -281 0
-318 -282 0
-322 -280 0
-323 -281 0
-324 -282 0
-409 -280 0
-410 -281 0
-411 -282 0
-421 -280 0
-422 -281 0
-423 -282 0
-412 -283 0
-413 -284 0
-414 -285 0
-496 -283 0
-497 -284 0
-498 -285 0
-526 -283 0
-527 -284 0
-528 -285 0
-565 -283 0
-566 -284 0
-567 -285 0
-346 -286 0
-347 -287 0
-348 -288 0
-361 -286 0
-362 -287 0
-363 -288 0
-472 -286 0
-473 -287 0
-474 -288 0
-367 -289 0
-368 -290 0
-369 -291 0
-415 -289 0
-416 -290 0
-417 -291 0
-469 -289 0
-470 -290 0
-471 -291 0
-487 -289 0
-488 -290 0
-489 -291 0
-541 -289 0
-542 -290 0
-543 -291 0
-325 -292 0
-326 -293 0
-327 -294 0
-379 -292 0
-380 -293 0
-381 -294 0
-316 -295 0
-317 -296 0
-318 -297 0
-367 -295 0
-368 -296 0
-369 -297 0
-469 -295 0
-470 -296 0
-471 -297 0
-481 -295 0
-482 -296 0
-483 -297 0
-325 -298 0
-326 -299 0
-327 -300 0
-325 -301 0
-326 -302 0
-327 -303 0
-415 -301 0
-416 -302 0
-417 -303 0
-547 -301 0
-548 -302 0
-549 -303 0
-475 -304 0
-476 -305 0
-477 -306 0
-529 -304 0
-530 -305 0
-531 -306 0
-541 -304 0
-542 -305 0
-543 -306 0
-319 -307 0
-320 -308 0
-321 -309 0
-358 -307 0
-359 -308 0
-360 -309 0
-385 -307 0
-386 -308 0
-387 -309 0
-526 -307 0
-527 -308 0
-528 -309 0
-550 -310 0
-551 -311 0
-552 -312 0
-340 -313 0
-341 -314 0
-342 -315 0
-466 -313 0
-467 -314 0
-468 -315 0
-349 -316 0
-350 -317 0
-351 -318 0
-400 -316 0
-401 -317 0
-402 -318 0
-409 -319 0
-410 -320 0
-411 -321 0
-502 -319 0
-503 -320 0
-504 -321 0
-595 -319 0
-596 -320 0
-597 -321 0
-385 -322 0
-386 -323 0
-387 -324 0
-490 -322 0
-491 -323 0
-492 -324 0
-328 -325 0
-329 -326 0
-330 -327 0
-340 -325 0
-341 -326 0
-342 -327 0
-526 -328 0
-527 -329 0
-528 -330 0
-547 -328 0
-548 -329 0
-549 -330 0
-361 -331 0
-362 -332 0
-363 -333 0
-391 -331 0
-392 -332 0
-393 -333 0
-466 -331 0
-467 -332 0
-468 -333 0
-526 -331 0
-527 -332 0
-528 -333 0
-529 -331 0
-530 -332 0
-531 -333 0
-547 -331 0
-548 -332 0
-549 -333 0
-556 -331 0
-557 -332 0
-558 -333 0
-397 -334 0
-398 -335 0
-399 -336 0
-400 -334 0
-401 -335 0
-402 -336 0
-445 -337 0
-446 -338 0
-447 -339 0
-532 -337 0
-533 -338 0
-534 -339 0
-451 -340 0
-452 -341 0
-453 -342 0
-469 -340 0
-470 -341 0
-471 -342 0
-481 -340 0
-482 -341 0
-483 -342 0
-397 -343 0
-398 -344 0
-399 -345 0
-445 -343 0
-446 -344 0
-447 -345 0
-484 -343 0
-485 -344 0
-486 -345 0
-556 -343 0
-557 -344 0
-558 -345 0
-403 -346 0
-404 -347 0
-405 -348 0
-361 -349 0
-362 -350 0
-363 -351 0
-475 -349 0
-476 -350 0
-477 -351 0
-574 -355 0
-575 -356 0
-576 -357 0
-403 -358 0
-404 -359 0
-405 -360 0
-517 -361 0
-518 -362 0
-519 -363 0
-385 -367 0
-386 -368 0
-387 -369 0
-418 -367 0
-419 -368 0
-420 -369 0
-571 -367 0
-572 -368 0
-573 -369 0
-580 -373 0
-581 -374 0
-582 -375 0
-409 -376 0
-410 -377 0
-411 -378 0
-439 -376 0
-440 -377 0
-441 -378 0
-508 -376 0
-509 -377 0
-510 -378 0
-388 -379 0
-389 -380 0
-390 -381 0
-442 -379 0
-443 -380 0
-444 -381 0
-469 -379 0
-470 -380 0
-471 -381 0
-583 -379 0
-584 -380 0
-585 -381 0
-463 -382 0
-464 -383 0
-465 -384 0
-421 -385 0
-422 -386 0
-423 -387 0
-571 -385 0
-572 -386 0
-573 -387 0
-484 -388 0
-485 -389 0
-486 -390 0
-562 -388 0
-563 -389 0
-564 -390 0
-592 -388 0
-593 -389 0
-594 -390 0
-517 -391 0
-518 -392 0
-519 -393 0
-577 -391 0
-578 -392 0
-579 -393 0
-406 -397 0
-407 -398 0
-408 -399 0
-424 -400 0
-425 -401 0
-426 -402 0
-559 -400 0
-560 -401 0
-561 -402 0
-451 -403 0
-452 -404 0
-453 -405 0
-508 -403 0
-509 -404 0
-510 -405 0
-463 -406 0
-464 -407 0
-465 -408 0
-433 -409 0
-434 -410 0
-435 -411 0
-523 -409 0
-524 -410 0
-525 -411 0
-478 -412 0
-479 -413 0
-480 -414 0
-541 -415 0
-542 -416 0
-543 -417 0
-580 -418 0
-581 -419 0
-582 -420 0
-430 -421 0
-431 -422 0
-432 -423 0
-439 -421 0
-440 -422 0
-441 -423 0
-520 -421 0
-521 -422 0
-522 -423 0
-511 -424 0
-512 -425 0
-513 -426 0
-523 -424 0
-524 -425 0
-525 -426 0
-565 -424 0
-566 -425 0
-567 -426 0
-532 -427 0
-533 -428 0
-534 -429 0
-556 -427 0
-557 -428 0
-558 -429 0
-442 -430 0
-443 -431 0
-444 -432 0
-460 -430 0
-461 -431 0
-462 -432 0
-550 -430 0
-551 -431 0
-552 -432 0
-487 -433 0
-488 -434 0
-489 -435 0
-595 -439 0
-596 -440 0
-597 -441 0
-598 -442 0
-599 -443 0
-600 -444 0
-475 -445 0
-476 -446 0
-477 -447 0
-496 -445 0
-497 -446 0
-498 -447 0
-568 -454 0
-569 -455 0
-570 -456 0
-577 -454 0
-578 -455 0
-579 -456 0
-475 -457 0
-476 -458 0
-477 -459 0
-523 -457 0
-524 -458 0
-525 -459 0
-553 -457 0
-554 -458 0
-555 -459 0
-583 -457 0
-584 -458 0
-585 -459 0
-493 -460 0
-494 -461 0
-495 -462 0
-502 -460 0
-503 -461 0
-504 -462 0
-496 -463 0
-497 -464 0
-498 -465 0
-484 -466 0
-485 -467 0
-486 -468 0
-547 -466 0
-548 -467 0
-549 -468 0
-511 -478 0
-512 -479 0
-513 -480 0
-514 -481 0
-515 -482 0
-516 -483 0
-544 -484 0
-545 -485 0
-546 -486 0
-574 -484 0
-575 -485 0
-576 -486 0
-562 -487 0
-563 -488 0
-564 -489 0
-553 -490 0
-554 -491 0
-555 -492 0
-559 -493 0
-560 -494 0
-561 -495 0
-580 -493 0
-581 -494 0
-582 -495 0
-589 -493 0
-590 -494 0
-591 -495 0
-541 -496 0
-542 -497 0
-543 -498 0
-598 -499 0
-599 -500 0
-600 -501 0
-514 -508 0
-515 -509 0
-516 -510 0
-523 -508 0
-524 -509 0
-525 -510 0
-562 -511 0
-563 -512 0
-564 -513 0
-592 -511 0
-593 -512 0
-594 -513 0
-517 -514 0
-518 -515 0
-519 -516 0
-595 -514 0
-596 -515 0
-597 -516 0
-589 -526 0
-590 -527 0
-591 -528 0
-595 -532 0
-596 -533 0
-597 -534 0
-574 -541 0
-575 -542 0
-576 -543 0
-559 -544 0
-560 -545 0
-561 -546 0
-571 -544 0
-572 -545 0
-573 -546 0
-592 -547 0
-593 -548 0
-594 -549 0
-598 -547 0
-599 -548 0
-600 -549 0
